nNurses = 137;
nHours = 37;
minHours = 5;
maxHours = 11;
maxConsec = 7;
maxPresence = 25;
demand = [31, 36, 37, 34, 34, 32, 31, 28, 27, 27, 31, 33, 32, 30, 33, 35, 31, 28, 33, 34, 37, 41, 37, 33, 34, 32, 30, 28, 30, 30, 35, 37, 32, 33, 38, 37, 39];
